40
   100    47    68    56     6     8    57    36    94    43    17    20    88    11    25    30    41    25    36    95    34    52    81    43    76    10    71     8     5    71    96    27    85    62    22    39    10    61    93    87
     3     8    10     3     2     3     6     3     7     7     2     9     2     8     5     8     8     1     7     9     6     6     4     1     2    10     4     6     5     4    10     4     9     8     8     9     8     6     6     3
   197   314   578   420   325   474   260   200   227   456   435   438   369   504   493   483   234   469   535   520   219   481   275   206   242   252   454   202   484   517   202   420   383   415   367   405   529   469   500   281
